10	5
0	2	2	1
1	2	10	3
2	2	5	4
3	1	5
4	2	10	7
5	2	6	8
6	1	11
7	1	11
8	1	11
9	1	11
10	1	11
11	0
0	0	0	0	0	0	0
1	2	4	1	3	3	5
2	1	3	3	5	1	1
3	9	1	3	3	3	5
4	6	4	2	4	3	1
5	7	4	1	2	2	3
6	3	4	4	1	1	5
7	1	4	1	3	1	1
8	6	4	4	3	2	4
9	9	5	3	1	2	2
10	1	3	1	2	4	2
11	0	0	0	0	0	0
7	4	6	6	8
